(set-info :smt-lib-version 2.6)
(set-logic QF_NIA)
(set-info :source |
Generated by: Cristina Borralleras, Daniel Larraz, Albert Oliveras, Enric Rodriguez-Carbonell, Albert Rubio
Generated on: 2017-04-27
Generator: VeryMax
Application: Termination proving
Target solver: barcelogic
|)
(set-info :license "https://creativecommons.org/licenses/by/4.0/")
(set-info :category "industrial")
(set-info :status unsat)
(declare-fun Nl2arg11 () Int)
(declare-fun Nl2arg21 () Int)
(declare-fun Nl2arg31 () Int)
(declare-fun Nl2arg41 () Int)
(declare-fun Nl2arg51 () Int)
(declare-fun Nl2arg61 () Int)
(declare-fun Nl2arg71 () Int)
(declare-fun lam0n0 () Int)
(declare-fun lam0n1 () Int)
(declare-fun lam0n2 () Int)
(declare-fun lam0n3 () Int)
(declare-fun lam0n4 () Int)
(declare-fun lam0n5 () Int)
(declare-fun lam0n6 () Int)
(declare-fun lam0n9 () Int)
(declare-fun Nl2CT1 () Int)
(declare-fun lam0n7 () Int)
(declare-fun lam0n8 () Int)
(declare-fun lam1n0 () Int)
(declare-fun lam1n1 () Int)
(declare-fun lam1n2 () Int)
(declare-fun lam1n3 () Int)
(declare-fun lam1n4 () Int)
(declare-fun lam1n5 () Int)
(declare-fun lam1n6 () Int)
(declare-fun lam1n9 () Int)
(declare-fun lam1n7 () Int)
(declare-fun lam1n8 () Int)
(declare-fun lam2n0 () Int)
(declare-fun lam2n1 () Int)
(declare-fun lam2n2 () Int)
(declare-fun lam2n3 () Int)
(declare-fun lam2n4 () Int)
(declare-fun lam2n5 () Int)
(declare-fun lam2n6 () Int)
(declare-fun lam2n7 () Int)
(declare-fun lam2n8 () Int)
(declare-fun lam2n9 () Int)
(declare-fun lam2n12 () Int)
(declare-fun lam2n10 () Int)
(declare-fun lam2n11 () Int)
(declare-fun lam3n0 () Int)
(declare-fun lam3n1 () Int)
(declare-fun lam3n2 () Int)
(declare-fun lam3n3 () Int)
(declare-fun lam3n4 () Int)
(declare-fun lam3n5 () Int)
(declare-fun lam3n6 () Int)
(declare-fun lam3n7 () Int)
(declare-fun lam3n8 () Int)
(declare-fun lam3n9 () Int)
(declare-fun lam3n12 () Int)
(declare-fun lam3n10 () Int)
(declare-fun lam3n11 () Int)
(declare-fun lam4n0 () Int)
(declare-fun lam4n1 () Int)
(declare-fun lam4n2 () Int)
(declare-fun lam4n3 () Int)
(declare-fun lam5n0 () Int)
(declare-fun lam5n1 () Int)
(declare-fun lam5n2 () Int)
(declare-fun lam5n3 () Int)
(declare-fun lam5n4 () Int)
(declare-fun lam6n0 () Int)
(declare-fun lam6n1 () Int)
(declare-fun lam6n2 () Int)
(declare-fun lam6n3 () Int)
(declare-fun lam6n4 () Int)
(declare-fun lam6n5 () Int)
(declare-fun lam7n0 () Int)
(declare-fun lam7n1 () Int)
(declare-fun lam7n2 () Int)
(declare-fun lam7n3 () Int)
(declare-fun lam7n4 () Int)
(declare-fun lam7n5 () Int)
(declare-fun lam7n6 () Int)
(assert ( and ( <= ( - 9 ) Nl2arg11 ) ( <= Nl2arg11 9 ) ( <= ( - 9 ) Nl2arg21 ) ( <= Nl2arg21 9 ) ( <= ( - 9 ) Nl2arg31 ) ( <= Nl2arg31 9 ) ( <= ( - 9 ) Nl2arg41 ) ( <= Nl2arg41 9 ) ( <= ( - 9 ) Nl2arg51 ) ( <= Nl2arg51 9 ) ( <= ( - 9 ) Nl2arg61 ) ( <= Nl2arg61 9 ) ( <= ( - 9 ) Nl2arg71 ) ( <= Nl2arg71 9 ) ))
(assert ( or ( and ( >= lam0n0 0 ) ( >= lam0n1 0 ) ( >= lam0n2 0 ) ( >= lam0n3 0 ) ( >= lam0n4 0 ) ( >= lam0n5 0 ) ( >= lam0n6 0 ) ( >= lam0n9 0 ) ( > ( + ( * 1 lam0n4 ) ( * 1 lam0n5 ) ( * 1 lam0n6 ) ( * Nl2CT1 lam0n9 ) ( - 1 ) ) 0 ) ( = ( + ( * ( - 1 ) lam0n0 ) ( * ( - 1 ) lam0n4 ) ( * Nl2arg11 lam0n9 ) ) 0 ) ( = ( + ( * ( - 1 ) lam0n1 ) ( * 1 lam0n7 ) ( * Nl2arg21 lam0n9 ) ) 0 ) ( = ( + ( * ( - 1 ) lam0n7 ) ( * Nl2arg31 lam0n9 ) ) 0 ) ( = ( + ( * ( - 1 ) lam0n5 ) ( * Nl2arg41 lam0n9 ) ) 0 ) ( = ( + ( * 1 lam0n2 ) ( * ( - 1 ) lam0n3 ) ( * 1 lam0n8 ) ( * Nl2arg51 lam0n9 ) ) 0 ) ( = ( + ( * ( - 1 ) lam0n2 ) ( * Nl2arg61 lam0n9 ) ) 0 ) ( = ( + ( * ( - 1 ) lam0n8 ) ( * Nl2arg71 lam0n9 ) ) 0 ) ( = ( + ( * 1 lam0n0 ) ( * ( - 1 ) lam0n6 ) ) 0 ) ) ( and ( >= lam1n0 0 ) ( >= lam1n1 0 ) ( >= lam1n2 0 ) ( >= lam1n3 0 ) ( >= lam1n4 0 ) ( >= lam1n5 0 ) ( >= lam1n6 0 ) ( >= lam1n9 0 ) ( > ( + ( * 1 lam1n4 ) ( * 1 lam1n5 ) ( * 1 lam1n6 ) ( * Nl2CT1 lam1n9 ) ( - 1 ( + ( + ( + ( + ( + Nl2CT1 ( * Nl2arg11 0 ) ) ( * Nl2arg21 1 ) ) ( * Nl2arg31 1 ) ) ( * Nl2arg41 9 ) ) ( * Nl2arg71 0 ) ) ) ) 0 ) ( = ( + ( * ( - 1 ) lam1n0 ) ( * ( - 1 ) lam1n4 ) ( * Nl2arg11 lam1n9 ) ) 0 ) ( = ( + ( * ( - 1 ) lam1n1 ) ( * 1 lam1n7 ) ( * Nl2arg21 lam1n9 ) ( - ( + ( + ( + 0 ( * Nl2arg21 1 ) ) ( * Nl2arg31 1 ) ) ( * Nl2arg41 ( - 1 ) ) ) ) ) 0 ) ( = ( + ( * ( - 1 ) lam1n7 ) ( * Nl2arg31 lam1n9 ) ) 0 ) ( = ( + ( * ( - 1 ) lam1n5 ) ( * Nl2arg41 lam1n9 ) ) 0 ) ( = ( + ( * 1 lam1n2 ) ( * ( - 1 ) lam1n3 ) ( * 1 lam1n8 ) ( * Nl2arg51 lam1n9 ) ( - ( + ( + 0 Nl2arg51 ) ( * Nl2arg71 1 ) ) ) ) 0 ) ( = ( + ( * ( - 1 ) lam1n2 ) ( * Nl2arg61 lam1n9 ) ( - ( + 0 Nl2arg61 ) ) ) 0 ) ( = ( + ( * ( - 1 ) lam1n8 ) ( * Nl2arg71 lam1n9 ) ) 0 ) ( = ( + ( * 1 lam1n0 ) ( * ( - 1 ) lam1n6 ) ( - ( + 0 ( * Nl2arg11 1 ) ) ) ) 0 ) ) ))
(assert ( or ( and ( >= lam2n0 0 ) ( >= lam2n1 0 ) ( >= lam2n2 0 ) ( >= lam2n3 0 ) ( >= lam2n4 0 ) ( >= lam2n5 0 ) ( >= lam2n6 0 ) ( >= lam2n7 0 ) ( >= lam2n8 0 ) ( >= lam2n9 0 ) ( >= lam2n12 0 ) ( > ( + ( * 1 lam2n5 ) ( * 1 lam2n6 ) ( * 1 lam2n7 ) ( * 1 lam2n8 ) ( * ( - 1 ) lam2n9 ) ( * Nl2CT1 lam2n12 ) ( - 1 ) ) 0 ) ( = ( + ( * ( - 1 ) lam2n0 ) ( * ( - 1 ) lam2n5 ) ( * Nl2arg11 lam2n12 ) ) 0 ) ( = ( + ( * ( - 1 ) lam2n1 ) ( * ( - 1 ) lam2n9 ) ( * 1 lam2n10 ) ( * Nl2arg21 lam2n12 ) ) 0 ) ( = ( + ( * ( - 1 ) lam2n10 ) ( * Nl2arg31 lam2n12 ) ) 0 ) ( = ( + ( * ( - 1 ) lam2n6 ) ( * Nl2arg41 lam2n12 ) ) 0 ) ( = ( + ( * ( - 1 ) lam2n2 ) ( * ( - 1 ) lam2n7 ) ( * 1 lam2n11 ) ( * Nl2arg51 lam2n12 ) ) 0 ) ( = ( + ( * ( - 1 ) lam2n3 ) ( * 1 lam2n7 ) ( * Nl2arg61 lam2n12 ) ) 0 ) ( = ( + ( * ( - 1 ) lam2n11 ) ( * Nl2arg71 lam2n12 ) ) 0 ) ( = ( + ( * 1 lam2n0 ) ( * ( - 1 ) lam2n8 ) ) 0 ) ( = ( + ( * ( - 1 ) lam2n4 ) ( * ( - 1 ) lam2n9 ) ) 0 ) ) ( and ( >= lam3n0 0 ) ( >= lam3n1 0 ) ( >= lam3n2 0 ) ( >= lam3n3 0 ) ( >= lam3n4 0 ) ( >= lam3n5 0 ) ( >= lam3n6 0 ) ( >= lam3n7 0 ) ( >= lam3n8 0 ) ( >= lam3n9 0 ) ( >= lam3n12 0 ) ( > ( + ( * 1 lam3n5 ) ( * 1 lam3n6 ) ( * 1 lam3n7 ) ( * 1 lam3n8 ) ( * ( - 1 ) lam3n9 ) ( * Nl2CT1 lam3n12 ) ( - 1 ( + ( + ( + ( + ( + ( + Nl2CT1 ( * Nl2arg11 0 ) ) ( * Nl2arg21 1 ) ) ( * Nl2arg31 1 ) ) ( * Nl2arg41 9 ) ) ( * Nl2arg61 1 ) ) ( * Nl2arg71 0 ) ) ) ) 0 ) ( = ( + ( * ( - 1 ) lam3n0 ) ( * ( - 1 ) lam3n5 ) ( * Nl2arg11 lam3n12 ) ) 0 ) ( = ( + ( * ( - 1 ) lam3n1 ) ( * ( - 1 ) lam3n9 ) ( * 1 lam3n10 ) ( * Nl2arg21 lam3n12 ) ( - ( + ( + ( + 0 ( * Nl2arg21 1 ) ) ( * Nl2arg31 1 ) ) ( * Nl2arg41 ( - 1 ) ) ) ) ) 0 ) ( = ( + ( * ( - 1 ) lam3n10 ) ( * Nl2arg31 lam3n12 ) ) 0 ) ( = ( + ( * ( - 1 ) lam3n6 ) ( * Nl2arg41 lam3n12 ) ) 0 ) ( = ( + ( * ( - 1 ) lam3n2 ) ( * ( - 1 ) lam3n7 ) ( * 1 lam3n11 ) ( * Nl2arg51 lam3n12 ) ( - ( + ( + 0 Nl2arg51 ) ( * Nl2arg71 1 ) ) ) ) 0 ) ( = ( + ( * ( - 1 ) lam3n3 ) ( * 1 lam3n7 ) ( * Nl2arg61 lam3n12 ) ( - ( + 0 ( * Nl2arg61 1 ) ) ) ) 0 ) ( = ( + ( * ( - 1 ) lam3n11 ) ( * Nl2arg71 lam3n12 ) ) 0 ) ( = ( + ( * 1 lam3n0 ) ( * ( - 1 ) lam3n8 ) ( - ( + 0 ( * Nl2arg11 1 ) ) ) ) 0 ) ( = ( + ( * ( - 1 ) lam3n4 ) ( * ( - 1 ) lam3n9 ) ( - ( + ( + ( + 0 ( * Nl2arg21 1 ) ) ( * Nl2arg31 1 ) ) ( * Nl2arg41 ( - 1 ) ) ) ) ) 0 ) ) ))
(assert ( and ( and ( >= lam4n0 0 ) ( >= lam4n1 0 ) ( >= lam4n2 0 ) ( > ( + ( * 1 lam4n1 ) ( * 1 lam4n2 ) ( - 1 ( + ( + ( + ( + ( + ( + ( + Nl2CT1 ( * Nl2arg11 0 ) ) ( * Nl2arg21 0 ) ) ( * Nl2arg31 0 ) ) ( * Nl2arg41 0 ) ) ( * Nl2arg51 0 ) ) ( * Nl2arg61 0 ) ) ( * Nl2arg71 0 ) ) ) ) 0 ) ( = ( + ( * 1 lam4n0 ) ( * ( - 1 ) lam4n1 ) ( - ( + 0 ( * Nl2arg11 1 ) ) ) ) 0 ) ( = ( + ( * ( - 1 ) lam4n0 ) ( * ( - 1 ) lam4n2 ) ) 0 ) ( = ( * 1 lam4n3 ) 0 ) ) ( and ( >= lam5n0 0 ) ( >= lam5n1 0 ) ( >= lam5n2 0 ) ( >= lam5n3 0 ) ( > ( + ( * 1 lam5n2 ) ( * 1 lam5n3 ) ( * ( - 1 ) lam5n4 ) ( - 1 ( + ( + ( + ( + ( + ( + ( + Nl2CT1 ( * Nl2arg11 0 ) ) ( * Nl2arg21 0 ) ) ( * Nl2arg31 0 ) ) ( * Nl2arg41 0 ) ) ( * Nl2arg51 1 ) ) ( * Nl2arg61 1 ) ) ( * Nl2arg71 1 ) ) ) ) 0 ) ( = ( + ( * 1 lam5n0 ) ( * ( - 1 ) lam5n2 ) ( - ( + 0 ( * Nl2arg11 1 ) ) ) ) 0 ) ( = ( + ( * ( - 1 ) lam5n1 ) ( - ( + 0 ( * Nl2arg21 1 ) ) ) ) 0 ) ( = ( + ( * ( - 1 ) lam5n0 ) ( * ( - 1 ) lam5n3 ) ) 0 ) ( = ( * 1 lam5n4 ) 0 ) ) ( and ( >= lam6n0 0 ) ( >= lam6n1 0 ) ( >= lam6n2 0 ) ( >= lam6n3 0 ) ( >= lam6n4 0 ) ( > ( + ( * 1 lam6n3 ) ( * 1 lam6n4 ) ( * ( - 2 ) lam6n5 ) ( - 1 ( + ( + ( + ( + ( + ( + ( + Nl2CT1 ( * Nl2arg11 0 ) ) ( * Nl2arg21 0 ) ) ( * Nl2arg31 0 ) ) ( * Nl2arg41 0 ) ) ( * Nl2arg51 2 ) ) ( * Nl2arg61 2 ) ) ( * Nl2arg71 2 ) ) ) ) 0 ) ( = ( + ( * 1 lam6n0 ) ( * ( - 1 ) lam6n3 ) ( - ( + 0 ( * Nl2arg11 1 ) ) ) ) 0 ) ( = ( + ( * ( - 1 ) lam6n1 ) ( - ( + 0 ( * Nl2arg21 1 ) ) ) ) 0 ) ( = ( + ( * ( - 1 ) lam6n2 ) ( - ( + 0 ( * Nl2arg41 1 ) ) ) ) 0 ) ( = ( + ( * ( - 1 ) lam6n0 ) ( * ( - 1 ) lam6n4 ) ) 0 ) ( = ( * 1 lam6n5 ) 0 ) ) ( and ( >= lam7n0 0 ) ( >= lam7n1 0 ) ( >= lam7n2 0 ) ( >= lam7n3 0 ) ( >= lam7n4 0 ) ( >= lam7n5 0 ) ( >= lam7n6 0 ) ( > ( + ( * 1 lam7n4 ) ( * 1 lam7n5 ) ( * 3 lam7n6 ) ( - 1 ( + ( + ( + ( + ( + ( + ( + Nl2CT1 ( * Nl2arg11 0 ) ) ( * Nl2arg21 0 ) ) ( * Nl2arg31 0 ) ) ( * Nl2arg41 0 ) ) ( * Nl2arg51 0 ) ) ( * Nl2arg61 3 ) ) ( * Nl2arg71 0 ) ) ) ) 0 ) ( = ( + ( * 1 lam7n0 ) ( * ( - 1 ) lam7n4 ) ( - ( + 0 ( * Nl2arg11 1 ) ) ) ) 0 ) ( = ( + ( * ( - 1 ) lam7n1 ) ( - ( + 0 ( * Nl2arg21 1 ) ) ) ) 0 ) ( = ( + ( * ( - 1 ) lam7n2 ) ( - ( + ( + 0 ( * Nl2arg31 1 ) ) ( * Nl2arg41 ( - 1 ) ) ) ) ) 0 ) ( = ( + ( * ( - 1 ) lam7n3 ) ( - ( + 0 ( * Nl2arg41 1 ) ) ) ) 0 ) ( = ( + ( * ( - 1 ) lam7n0 ) ( * ( - 1 ) lam7n5 ) ) 0 ) ( = ( + ( * ( - 1 ) lam7n6 ) ( - ( + ( + 0 ( * Nl2arg51 1 ) ) ( * Nl2arg71 1 ) ) ) ) 0 ) ) ))
(assert ( or ( and ( >= lam0n0 0 ) ( >= lam0n1 0 ) ( >= lam0n2 0 ) ( >= lam0n3 0 ) ( >= lam0n4 0 ) ( >= lam0n5 0 ) ( >= lam0n6 0 ) ( >= lam0n9 0 ) ( > ( + ( * 1 lam0n4 ) ( * 1 lam0n5 ) ( * 1 lam0n6 ) ( * Nl2CT1 lam0n9 ) ( - 1 ) ) 0 ) ( = ( + ( * ( - 1 ) lam0n0 ) ( * ( - 1 ) lam0n4 ) ( * Nl2arg11 lam0n9 ) ) 0 ) ( = ( + ( * ( - 1 ) lam0n1 ) ( * 1 lam0n7 ) ( * Nl2arg21 lam0n9 ) ) 0 ) ( = ( + ( * ( - 1 ) lam0n7 ) ( * Nl2arg31 lam0n9 ) ) 0 ) ( = ( + ( * ( - 1 ) lam0n5 ) ( * Nl2arg41 lam0n9 ) ) 0 ) ( = ( + ( * 1 lam0n2 ) ( * ( - 1 ) lam0n3 ) ( * 1 lam0n8 ) ( * Nl2arg51 lam0n9 ) ) 0 ) ( = ( + ( * ( - 1 ) lam0n2 ) ( * Nl2arg61 lam0n9 ) ) 0 ) ( = ( + ( * ( - 1 ) lam0n8 ) ( * Nl2arg71 lam0n9 ) ) 0 ) ( = ( + ( * 1 lam0n0 ) ( * ( - 1 ) lam0n6 ) ) 0 ) ) ( and ( >= lam2n0 0 ) ( >= lam2n1 0 ) ( >= lam2n2 0 ) ( >= lam2n3 0 ) ( >= lam2n4 0 ) ( >= lam2n5 0 ) ( >= lam2n6 0 ) ( >= lam2n7 0 ) ( >= lam2n8 0 ) ( >= lam2n9 0 ) ( >= lam2n12 0 ) ( > ( + ( * 1 lam2n5 ) ( * 1 lam2n6 ) ( * 1 lam2n7 ) ( * 1 lam2n8 ) ( * ( - 1 ) lam2n9 ) ( * Nl2CT1 lam2n12 ) ( - 1 ) ) 0 ) ( = ( + ( * ( - 1 ) lam2n0 ) ( * ( - 1 ) lam2n5 ) ( * Nl2arg11 lam2n12 ) ) 0 ) ( = ( + ( * ( - 1 ) lam2n1 ) ( * ( - 1 ) lam2n9 ) ( * 1 lam2n10 ) ( * Nl2arg21 lam2n12 ) ) 0 ) ( = ( + ( * ( - 1 ) lam2n10 ) ( * Nl2arg31 lam2n12 ) ) 0 ) ( = ( + ( * ( - 1 ) lam2n6 ) ( * Nl2arg41 lam2n12 ) ) 0 ) ( = ( + ( * ( - 1 ) lam2n2 ) ( * ( - 1 ) lam2n7 ) ( * 1 lam2n11 ) ( * Nl2arg51 lam2n12 ) ) 0 ) ( = ( + ( * ( - 1 ) lam2n3 ) ( * 1 lam2n7 ) ( * Nl2arg61 lam2n12 ) ) 0 ) ( = ( + ( * ( - 1 ) lam2n11 ) ( * Nl2arg71 lam2n12 ) ) 0 ) ( = ( + ( * 1 lam2n0 ) ( * ( - 1 ) lam2n8 ) ) 0 ) ( = ( + ( * ( - 1 ) lam2n4 ) ( * ( - 1 ) lam2n9 ) ) 0 ) ) ))
(check-sat)
(exit)
